data/BV/CAV19/chc/64bits_unsigned/32bits_unsignedcegis_danger_benchmark_svcomp_const_true-unreach-call1.sl_32bits_unsigned.sl_64bits_unsigned.smt2
(set-logic HORN)
(declare-fun inv ((_ BitVec 64) (_ BitVec 64) ) Bool)
(assert (forall ((x (_ BitVec 64)) (y (_ BitVec 64))) 
       (=> ( and ( = x #x00000001 ) ( = y #x00000000 ) ) (inv x y))))
(assert (forall ((x (_ BitVec 64)) (x! (_ BitVec 64)) (y (_ BitVec 64)) (y! (_ BitVec 64))) 
       (=> (and (inv x x!) ( and ( bvult y #x00000400 ) ( = x! #x00000000 ) ( = y! ( bvadd y #x00000001 ) ) )) (inv y y!))))
(assert (forall ((x (_ BitVec 64)) (y (_ BitVec 64))) 
       (=> (inv x y) ( or ( = x #x00000000 ) ( bvult y #x00000400 ) ))))
(check-sat)
